array [1..2] of int: X_INTRODUCED_4_ = [1,-1];
var 1..4: X_INTRODUCED_0_;
var 1..4: X_INTRODUCED_1_;
var 1..4: X_INTRODUCED_2_;
var 1..4: X_INTRODUCED_3_;
array [1..4] of var int: q:: output_array([1..4]) = [X_INTRODUCED_0_,X_INTRODUCED_1_,X_INTRODUCED_2_,X_INTRODUCED_3_];
constraint int_lin_ne(X_INTRODUCED_4_,[X_INTRODUCED_0_,X_INTRODUCED_1_],0);
constraint int_lin_ne(X_INTRODUCED_4_,[X_INTRODUCED_0_,X_INTRODUCED_1_],1);
constraint int_lin_ne(X_INTRODUCED_4_,[X_INTRODUCED_0_,X_INTRODUCED_1_],-1);
constraint int_lin_ne(X_INTRODUCED_4_,[X_INTRODUCED_0_,X_INTRODUCED_2_],0);
constraint int_lin_ne(X_INTRODUCED_4_,[X_INTRODUCED_0_,X_INTRODUCED_2_],2);
constraint int_lin_ne(X_INTRODUCED_4_,[X_INTRODUCED_0_,X_INTRODUCED_2_],-2);
constraint int_lin_ne(X_INTRODUCED_4_,[X_INTRODUCED_0_,X_INTRODUCED_3_],0);
constraint int_lin_ne(X_INTRODUCED_4_,[X_INTRODUCED_0_,X_INTRODUCED_3_],3);
constraint int_lin_ne(X_INTRODUCED_4_,[X_INTRODUCED_0_,X_INTRODUCED_3_],-3);
constraint int_lin_ne(X_INTRODUCED_4_,[X_INTRODUCED_1_,X_INTRODUCED_2_],0);
constraint int_lin_ne(X_INTRODUCED_4_,[X_INTRODUCED_1_,X_INTRODUCED_2_],1);
constraint int_lin_ne(X_INTRODUCED_4_,[X_INTRODUCED_1_,X_INTRODUCED_2_],-1);
constraint int_lin_ne(X_INTRODUCED_4_,[X_INTRODUCED_1_,X_INTRODUCED_3_],0);
constraint int_lin_ne(X_INTRODUCED_4_,[X_INTRODUCED_1_,X_INTRODUCED_3_],2);
constraint int_lin_ne(X_INTRODUCED_4_,[X_INTRODUCED_1_,X_INTRODUCED_3_],-2);
constraint int_lin_ne(X_INTRODUCED_4_,[X_INTRODUCED_2_,X_INTRODUCED_3_],0);
constraint int_lin_ne(X_INTRODUCED_4_,[X_INTRODUCED_2_,X_INTRODUCED_3_],1);
constraint int_lin_ne(X_INTRODUCED_4_,[X_INTRODUCED_2_,X_INTRODUCED_3_],-1);
solve  satisfy;
